c solution = True
p edge 100 99
e 83 1 1
e 40 83 1
e 58 40 1
e 87 58 1
e 3 58 1
e 9 3 1
e 34 3 1
e 39 34 1
e 20 39 1
e 68 39 1
e 82 39 1
e 18 39 1
e 80 18 1
e 57 80 1
e 70 80 1
e 7 70 1
e 33 70 1
e 43 70 1
e 56 70 1
e 66 56 1
e 85 56 1
e 90 85 1
e 95 85 1
e 51 85 1
e 16 51 1
e 23 51 1
e 84 51 1
e 54 51 1
e 100 54 1
e 75 100 1
e 14 84 1
e 2 14 1
e 6 2 1
e 76 6 1
e 60 76 1
e 22 60 1
e 64 60 1
e 4 95 1
e 19 95 1
e 15 95 1
e 32 95 1
e 89 32 1
e 91 32 1
e 10 91 1
e 92 91 1
e 62 91 1
e 45 62 1
e 28 45 1
e 12 45 1
e 73 12 1
e 88 12 1
e 71 88 1
e 35 71 1
e 48 35 1
e 8 35 1
e 29 8 1
e 94 29 1
e 21 89 1
e 36 89 1
e 86 15 1
e 49 86 1
e 41 49 1
e 61 41 1
e 37 41 1
e 74 37 1
e 59 19 1
e 46 4 1
e 24 4 1
e 55 24 1
e 47 66 1
e 17 47 1
e 98 47 1
e 65 17 1
e 25 65 1
e 96 25 1
e 13 43 1
e 93 13 1
e 97 93 1
e 5 57 1
e 31 57 1
e 69 82 1
e 27 82 1
e 38 27 1
e 52 27 1
e 30 52 1
e 67 52 1
e 77 67 1
e 78 67 1
e 11 78 1
e 99 78 1
e 44 77 1
e 81 77 1
e 26 69 1
e 72 9 1
e 53 72 1
e 79 53 1
e 50 79 1
e 42 87 1
e 63 87 1
